unknown
(model
; cardinality of BoundSet is 3
(declare-sort BoundSet 0)
; rep: @uc_BoundSet_0
; rep: @uc_BoundSet_1
; rep: @uc_BoundSet_2
; cardinality of UnboundSet is 1
(declare-sort UnboundSet 0)
(declare-fun groundTerm_4 () UnboundSet)
(define-fun IsDefra ((BOUND_VARIABLE_419 BoundSet)) Bool true)
(define-fun WasBetween ((BOUND_VARIABLE_426 BoundSet) (BOUND_VARIABLE_427 BoundSet)) Bool true)
(define-fun IsIssueOfOceanAcidification ((BOUND_VARIABLE_419 BoundSet)) Bool false)
(define-fun IsNextToNothing ((BOUND_VARIABLE_419 BoundSet)) Bool false)
(define-fun IsBasicResearch ((BOUND_VARIABLE_419 BoundSet)) Bool false)
)
sat
(model
; cardinality of BoundSet is 1
(declare-sort BoundSet 0)
; rep: @uc_BoundSet_0
; cardinality of UnboundSet is 1
(declare-sort UnboundSet 0)
(declare-fun groundTerm_6 () UnboundSet)
(define-fun IsDefra ((BOUND_VARIABLE_452 BoundSet)) Bool true)
(define-fun WasBetween ((BOUND_VARIABLE_459 BoundSet) (BOUND_VARIABLE_460 BoundSet)) Bool true)
(define-fun IsIssueOfOceanAcidification ((BOUND_VARIABLE_452 BoundSet)) Bool false)
(define-fun IsNextToNothing ((BOUND_VARIABLE_452 BoundSet)) Bool false)
(define-fun IsBasicResearch ((BOUND_VARIABLE_452 BoundSet)) Bool false)
)
